//Number of items      		
160
//Bin Capacity      
1000
//Known Best Solution  		
67
//Weight of Item
     697         1
     688         1
     687         1
     682         1
     680         1
     677         1
     676         1
     673         1
     671         1
     664         1
     663         1
     661         1
     650         1
     646         1
     644         1
     636         1
     630         1
     626         1
     624         1
     616         1
     608         2
     607         1
     606         1
     601         1
     599         1
     593         1
     585         1
     584         1
     579         1
     578         2
     573         1
     572         1
     570         1
     566         2
     565         1
     555         1
     552         1
     543         2
     540         1
     535         1
     532         2
     530         1
     528         1
     525         1
     517         1
     516         1
     514         1
     512         1
     511         1
     509         1
     508         1
     506         1
     499         1
     498         1
     491         1
     489         1
     481         1
     475         1
     474         1
     470         1
     465         1
     464         1
     455         1
     454         1
     453         1
     444         1
     443         1
     439         2
     432         1
     428         1
     425         1
     423         1
     421         1
     420         2
     414         1
     410         1
     409         1
     407         1
     405         1
     400         2
     398         1
     395         1
     393         1
     390         1
     379         1
     372         1
     368         1
     364         1
     361         1
     357         1
     356         1
     346         1
     343         1
     341         1
     339         1
     334         1
     328         1
     326         1
     325         1
     323         1
     321         1
     310         2
     308         1
     306         1
     304         1
     301         1
     299         1
     292         1
     288         2
     281         1
     275         1
     274         1
     272         1
     270         2
     267         1
     264         1
     253         1
     228         1
     226         1
     222         2
     211         1
     203         1
     202         3
     198         2
     189         2
     183         1
     180         1
     178         1
     177         1
     172         1
     170         1
     168         1
     155         1
     153         1
     152         1
     145         1
     139         1
     137         1
     135         1
     118         1
     116         1
     113         1
     106         1
     105         2
      98         1
      88         1
      77         1
      76         3
      67         1
      63         1
      60         1
      50         1
      46         2
      45         1
      44         1
      38         1
      27         1
      16         1
      14         1
       9         1